c 
c MolecularSimulation 0.9.3
c Simulation written: Feb  3 2012 -- 09:27:43
c Test: Distribution
c Input: ./data/example/example_N5_M4.cnf
c 
s SATISFIABLE
v 1 2 3 0
c algorithmType:  Distribution
c algorithmTime:  0
c solutionMemory: 166
c mixCount:       9
c extractCount:   0
c appendCount:    44
c splitCount:     9
c spliceCount:    4
c purifyCount:    3
c numVar:         5
c numClause:      4
c 
